% Noms des plat: ["muffins", "omelette"];

nb_recettes = 2;
nb_ingredients = 7;
nb_moments = 3;
nb_categories = 4;

% noms_ingredients = ["farine (g)", "sucre (g)", "oeufs (nb)", "lait (ml)", "sel (g)", "beurre (g)", "crème (ml)"];
ingredients = [|56, 53, 1, 45, 1, 29, 0,
|0,  0,  2, 0,  2, 0,  0|];

% Moment de recette (déjeuner, dîner, souper)
moments = [|1, 1, 0,
|1, 0, 1|];

% Catégorie de plat: [0: "continental", 1: "asiatique", 2: "italien", 3: "mexicain"];
categories = [0, 0];

% Quantités pour chaque ingrédient exprimée en fonction de l'unité de mesure
qtes_disponibles = [500, 500, 4, 2000, 500, 500, 400];

% Nombre de jours avant la péremption d'un ingrédient
peremptions = [2, 600, 10, 5, 1000, 60, 8];